c Result of efficient AIG-to-CNF conversion using package CNF
p cnf 292 839
1 289 290 0
-1 -289 0
-1 -290 0
2 -284 285 0
-2 284 0
-2 -285 0
3 284 -285 0
-3 -284 0
-3 285 0
4 2 3 0
-4 -2 0
-4 -3 0
5 -1 4 0
-5 1 0
-5 -4 0
6 -288 -5 0
-6 288 0
-6 5 0
7 -286 -287 0
-7 286 0
-7 287 0
8 286 287 0
-8 -286 0
-8 -287 0
9 7 8 0
-9 -7 0
-9 -8 0
10 -290 -9 0
-10 290 0
-10 9 0
11 6 10 0
-11 -6 0
-11 -10 0
12 -285 -286 0
-12 285 0
-12 286 0
13 290 -12 0
-13 -290 0
-13 12 0
14 -289 13 0
-14 289 0
-14 -13 0
15 -286 -288 0
-15 286 0
-15 288 0
16 285 286 0
-16 -285 0
-16 -286 0
17 290 16 0
-17 -290 0
-17 -16 0
18 15 17 0
-18 -15 0
-18 -17 0
19 -14 18 0
-19 14 0
-19 -18 0
20 -11 19 0
-20 11 0
-20 -19 0
21 281 282 0
-21 -281 0
-21 -282 0
22 -281 -282 0
-22 281 0
-22 282 0
23 21 22 0
-23 -21 0
-23 -22 0
24 -285 23 0
-24 285 0
-24 -23 0
25 -281 -284 0
-25 281 0
-25 284 0
26 280 -25 0
-26 -280 0
-26 25 0
27 -280 25 0
-27 280 0
-27 -25 0
28 26 27 0
-28 -26 0
-28 -27 0
29 285 -28 0
-29 -285 0
-29 28 0
30 24 29 0
-30 -24 0
-30 -29 0
31 -8 -30 0
-31 8 0
-31 30 0
32 -282 287 0
-32 282 0
-32 -287 0
33 -284 -287 0
-33 284 0
-33 287 0
34 32 33 0
-34 -32 0
-34 -33 0
35 -283 34 0
-35 283 0
-35 -34 0
36 283 -34 0
-36 -283 0
-36 34 0
37 8 36 0
-37 -8 0
-37 -36 0
38 35 -37 0
-38 -35 0
-38 37 0
39 31 38 0
-39 -31 0
-39 -38 0
40 288 -1 0
-40 -288 0
-40 1 0
41 39 -40 0
-41 -39 0
-41 40 0
42 -20 41 0
-42 20 0
-42 -41 0
43 -288 7 0
-43 288 0
-43 -7 0
44 -290 43 0
-44 290 0
-44 -43 0
45 -288 289 0
-45 288 0
-45 -289 0
46 -7 45 0
-46 7 0
-46 -45 0
47 -44 46 0
-47 44 0
-47 -46 0
48 287 12 0
-48 -287 0
-48 -12 0
49 -285 -7 0
-49 285 0
-49 7 0
50 48 49 0
-50 -48 0
-50 -49 0
51 -289 -50 0
-51 289 0
-51 50 0
52 -284 -285 0
-52 284 0
-52 285 0
53 286 52 0
-53 -286 0
-53 -52 0
54 -284 -12 0
-54 284 0
-54 12 0
55 -45 54 0
-55 45 0
-55 -54 0
56 53 -55 0
-56 -53 0
-56 55 0
57 51 56 0
-57 -51 0
-57 -56 0
58 290 -57 0
-58 -290 0
-58 57 0
59 47 58 0
-59 -47 0
-59 -58 0
60 -283 -52 0
-60 283 0
-60 52 0
61 -287 60 0
-61 287 0
-61 -60 0
62 -283 -284 0
-62 283 0
-62 284 0
63 285 62 0
-63 -285 0
-63 -62 0
64 -61 63 0
-64 61 0
-64 -63 0
65 -282 -62 0
-65 282 0
-65 62 0
66 287 65 0
-66 -287 0
-66 -65 0
67 -286 -66 0
-67 286 0
-67 66 0
68 -282 -283 0
-68 282 0
-68 283 0
69 284 68 0
-69 -284 0
-69 -68 0
70 -67 69 0
-70 67 0
-70 -69 0
71 64 70 0
-71 -64 0
-71 -70 0
72 -282 283 0
-72 282 0
-72 -283 0
73 -281 -72 0
-73 281 0
-73 72 0
74 -283 22 0
-74 283 0
-74 -22 0
75 73 74 0
-75 -73 0
-75 -74 0
76 -285 -75 0
-76 285 0
-76 75 0
77 -8 76 0
-77 8 0
-77 -76 0
78 -280 282 0
-78 280 0
-78 -282 0
79 -284 78 0
-79 284 0
-79 -78 0
80 -281 79 0
-80 281 0
-80 -79 0
81 -280 -281 0
-81 280 0
-81 281 0
82 -284 81 0
-82 284 0
-82 -81 0
83 -282 -82 0
-83 282 0
-83 82 0
84 80 83 0
-84 -80 0
-84 -83 0
85 285 -84 0
-85 -285 0
-85 84 0
86 -77 85 0
-86 77 0
-86 -85 0
87 -71 86 0
-87 71 0
-87 -86 0
88 -40 87 0
-88 40 0
-88 -87 0
89 59 88 0
-89 -59 0
-89 -88 0
90 -287 -288 0
-90 287 0
-90 288 0
91 -286 -90 0
-91 286 0
-91 90 0
92 289 91 0
-92 -289 0
-92 -91 0
93 -290 92 0
-93 290 0
-93 -92 0
94 -285 -91 0
-94 285 0
-94 91 0
95 -289 94 0
-95 289 0
-95 -94 0
96 288 49 0
-96 -288 0
-96 -49 0
97 -95 96 0
-97 95 0
-97 -96 0
98 93 97 0
-98 -93 0
-98 -97 0
99 -288 54 0
-99 288 0
-99 -54 0
100 287 -99 0
-100 -287 0
-100 99 0
101 -1 100 0
-101 1 0
-101 -100 0
102 288 60 0
-102 -288 0
-102 -60 0
103 286 -102 0
-103 -286 0
-103 102 0
104 283 288 0
-104 -283 0
-104 -288 0
105 -54 104 0
-105 54 0
-105 -104 0
106 103 105 0
-106 -103 0
-106 -105 0
107 -287 106 0
-107 287 0
-107 -106 0
108 -101 107 0
-108 101 0
-108 -107 0
109 -16 82 0
-109 16 0
-109 -82 0
110 -282 -109 0
-110 282 0
-110 109 0
111 52 110 0
-111 -52 0
-111 -110 0
112 283 111 0
-112 -283 0
-112 -111 0
113 -284 286 0
-113 284 0
-113 -286 0
114 -283 -113 0
-114 283 0
-114 113 0
115 12 114 0
-115 -12 0
-115 -114 0
116 286 81 0
-116 -286 0
-116 -81 0
117 285 -116 0
-117 -285 0
-117 116 0
118 -284 -117 0
-118 284 0
-118 117 0
119 -282 118 0
-119 282 0
-119 -118 0
120 115 119 0
-120 -115 0
-120 -119 0
121 287 288 0
-121 -287 0
-121 -288 0
122 -281 286 0
-122 281 0
-122 -286 0
123 -285 122 0
-123 285 0
-123 -122 0
124 284 -286 0
-124 -284 0
-124 286 0
125 113 124 0
-125 -113 0
-125 -124 0
126 -123 125 0
-126 123 0
-126 -125 0
127 -121 126 0
-127 121 0
-127 -126 0
128 284 -16 0
-128 -284 0
-128 16 0
129 -283 113 0
-129 283 0
-129 -113 0
130 2 122 0
-130 -2 0
-130 -122 0
131 -129 130 0
-131 129 0
-131 -130 0
132 128 131 0
-132 -128 0
-132 -131 0
133 -16 -82 0
-133 16 0
-133 82 0
134 -282 133 0
-134 282 0
-134 -133 0
135 132 -134 0
-135 -132 0
-135 134 0
136 -127 135 0
-136 127 0
-136 -135 0
137 120 -136 0
-137 -120 0
-137 136 0
138 112 -137 0
-138 -112 0
-138 137 0
139 -108 138 0
-139 108 0
-139 -138 0
140 -98 139 0
-140 98 0
-140 -139 0
141 283 -1 0
-141 -283 0
-141 1 0
142 282 -52 0
-142 -282 0
-142 52 0
143 -91 -142 0
-143 91 0
-143 142 0
144 -121 -128 0
-144 121 0
-144 128 0
145 143 144 0
-145 -143 0
-145 -144 0
146 -141 145 0
-146 141 0
-146 -145 0
147 287 289 0
-147 -287 0
-147 -289 0
148 -286 -147 0
-148 286 0
-148 147 0
149 95 148 0
-149 -95 0
-149 -148 0
150 45 -149 0
-150 -45 0
-150 149 0
151 -282 -90 0
-151 282 0
-151 90 0
152 285 -121 0
-152 -285 0
-152 121 0
153 151 152 0
-153 -151 0
-153 -152 0
154 -282 288 0
-154 282 0
-154 -288 0
155 287 154 0
-155 -287 0
-155 -154 0
156 -283 155 0
-156 283 0
-156 -155 0
157 -153 156 0
-157 153 0
-157 -156 0
158 281 -285 0
-158 -281 0
-158 285 0
159 287 158 0
-159 -287 0
-159 -158 0
160 286 159 0
-160 -286 0
-160 -159 0
161 -284 160 0
-161 284 0
-161 -160 0
162 -281 -68 0
-162 281 0
-162 68 0
163 -280 -162 0
-163 280 0
-163 162 0
164 286 163 0
-164 -286 0
-164 -163 0
165 285 164 0
-165 -285 0
-165 -164 0
166 -161 165 0
-166 161 0
-166 -165 0
167 157 -166 0
-167 -157 0
-167 166 0
168 150 167 0
-168 -150 0
-168 -167 0
169 289 -168 0
-169 -289 0
-169 168 0
170 160 165 0
-170 -160 0
-170 -165 0
171 -284 -170 0
-171 284 0
-171 170 0
172 157 -171 0
-172 -157 0
-172 171 0
173 289 172 0
-173 -289 0
-173 -172 0
174 -150 173 0
-174 150 0
-174 -173 0
175 169 174 0
-175 -169 0
-175 -174 0
176 290 -175 0
-176 -290 0
-176 175 0
177 -283 -54 0
-177 283 0
-177 54 0
178 -154 -177 0
-178 154 0
-178 177 0
179 -283 16 0
-179 283 0
-179 -16 0
180 282 179 0
-180 -282 0
-180 -179 0
181 -284 180 0
-181 284 0
-181 -180 0
182 288 16 0
-182 -288 0
-182 -16 0
183 181 182 0
-183 -181 0
-183 -182 0
184 178 183 0
-184 -178 0
-184 -183 0
185 -281 -283 0
-185 281 0
-185 283 0
186 -280 -185 0
-186 280 0
-186 185 0
187 286 186 0
-187 -286 0
-187 -186 0
188 285 -187 0
-188 -285 0
-188 187 0
189 -121 188 0
-189 121 0
-189 -188 0
190 94 189 0
-190 -94 0
-190 -189 0
191 -184 190 0
-191 184 0
-191 -190 0
192 -1 191 0
-192 1 0
-192 -191 0
193 -12 -62 0
-193 12 0
-193 62 0
194 -282 -193 0
-194 282 0
-194 193 0
195 -121 194 0
-195 121 0
-195 -194 0
196 -1 -195 0
-196 1 0
-196 195 0
197 -280 -42 0
-197 280 0
-197 42 0
198 280 42 0
-198 -280 0
-198 -42 0
199 197 198 0
-199 -197 0
-199 -198 0
200 89 197 0
-200 -89 0
-200 -197 0
201 -89 -197 0
-201 89 0
-201 197 0
202 200 201 0
-202 -200 0
-202 -201 0
203 -280 -202 0
-203 280 0
-203 202 0
204 280 202 0
-204 -280 0
-204 -202 0
205 203 204 0
-205 -203 0
-205 -204 0
206 -280 -89 0
-206 280 0
-206 89 0
207 280 89 0
-207 -280 0
-207 -89 0
208 -197 207 0
-208 197 0
-208 -207 0
209 197 -206 0
-209 -197 0
-209 206 0
210 208 209 0
-210 -208 0
-210 -209 0
211 140 -210 0
-211 -140 0
-211 210 0
212 -140 210 0
-212 140 0
-212 -210 0
213 211 212 0
-213 -211 0
-213 -212 0
214 140 -213 0
-214 -140 0
-214 213 0
215 -140 213 0
-215 140 0
-215 -213 0
216 214 215 0
-216 -214 0
-216 -215 0
217 146 -210 0
-217 -146 0
-217 210 0
218 -146 210 0
-218 146 0
-218 -210 0
219 217 218 0
-219 -217 0
-219 -218 0
220 146 -219 0
-220 -146 0
-220 219 0
221 -146 219 0
-221 146 0
-221 -219 0
222 220 221 0
-222 -220 0
-222 -221 0
223 176 -210 0
-223 -176 0
-223 210 0
224 -176 210 0
-224 176 0
-224 -210 0
225 223 224 0
-225 -223 0
-225 -224 0
226 176 -225 0
-226 -176 0
-226 225 0
227 -176 225 0
-227 176 0
-227 -225 0
228 226 227 0
-228 -226 0
-228 -227 0
229 192 -210 0
-229 -192 0
-229 210 0
230 -192 210 0
-230 192 0
-230 -210 0
231 229 230 0
-231 -229 0
-231 -230 0
232 192 -231 0
-232 -192 0
-232 231 0
233 -192 231 0
-233 192 0
-233 -231 0
234 232 233 0
-234 -232 0
-234 -233 0
235 196 -210 0
-235 -196 0
-235 210 0
236 -196 210 0
-236 196 0
-236 -210 0
237 235 236 0
-237 -235 0
-237 -236 0
238 196 -237 0
-238 -196 0
-238 237 0
239 -196 237 0
-239 196 0
-239 -237 0
240 238 239 0
-240 -238 0
-240 -239 0
241 -199 -205 0
-241 199 0
-241 205 0
242 -216 241 0
-242 216 0
-242 -241 0
243 216 -241 0
-243 -216 0
-243 241 0
244 242 243 0
-244 -242 0
-244 -243 0
245 -216 -241 0
-245 216 0
-245 241 0
246 -222 245 0
-246 222 0
-246 -245 0
247 222 -245 0
-247 -222 0
-247 245 0
248 246 247 0
-248 -246 0
-248 -247 0
249 -222 -245 0
-249 222 0
-249 245 0
250 -228 249 0
-250 228 0
-250 -249 0
251 228 -249 0
-251 -228 0
-251 249 0
252 250 251 0
-252 -250 0
-252 -251 0
253 -228 -249 0
-253 228 0
-253 249 0
254 -234 253 0
-254 234 0
-254 -253 0
255 234 -253 0
-255 -234 0
-255 253 0
256 254 255 0
-256 -254 0
-256 -255 0
257 -234 -253 0
-257 234 0
-257 253 0
258 -240 257 0
-258 240 0
-258 -257 0
259 240 -257 0
-259 -240 0
-259 257 0
260 258 259 0
-260 -258 0
-260 -259 0
261 -210 216 0
-261 210 0
-261 -216 0
262 210 244 0
-262 -210 0
-262 -244 0
263 261 262 0
-263 -261 0
-263 -262 0
264 -210 222 0
-264 210 0
-264 -222 0
265 210 248 0
-265 -210 0
-265 -248 0
266 264 265 0
-266 -264 0
-266 -265 0
267 -210 228 0
-267 210 0
-267 -228 0
268 210 252 0
-268 -210 0
-268 -252 0
269 267 268 0
-269 -267 0
-269 -268 0
270 -210 234 0
-270 210 0
-270 -234 0
271 210 256 0
-271 -210 0
-271 -256 0
272 270 271 0
-272 -270 0
-272 -271 0
273 -210 240 0
-273 210 0
-273 -240 0
274 210 260 0
-274 -210 0
-274 -260 0
275 273 274 0
-275 -273 0
-275 -274 0
276 -263 -266 0
-276 263 0
-276 266 0
277 -269 -276 0
-277 269 0
-277 276 0
278 -272 -277 0
-278 272 0
-278 277 0
279 -275 -278 0
-279 275 0
-279 278 0
291 0
279 0

